104 300 102 119 122 136 137 131 146 115 123 127 111 136 138 147 141 112 103 131 149 143 139 103 110 132 124 140 144 100 104 122 120 131 141 116 116 127 148 111 116 145 138 102 104 100 149 119 137 126 100 135 118 139 112 102 120 111 143 138 111 121 109 105 101 150 121 142 100 143 102 142 138 114 144 142 114 116 111 100 142 136 109 134 124 147 111 144 107 103 131 118 149 140 123 150 113 118 115 113 111 117 104 123 105 122 